int NumberPatients = 106
int NumberOfRooms = 6
int NumberSurgeons = 20
int NumberOfDays = 6
Duration = [53,66,98,93,66,47,66,32,119,119,217,32,112,32,119,32,31,101,47,66,47,80,41,60,66,131,59,119,78,97,98,145,140,34,98,98,93,32,60,227,47,47,112,32,103,103,210,117,66,74,117,105,59,103,47,105,98,131,103,47,115,72,210,119,60,39,119,50,260,46,47,264,201,66,210,60,105,103,85,103,103,32,39,93,103,118,66,103,130,75,98,60,39,138,138,78,119,32,79,39,32,39,112,132,78,103];
Priority = [0,0,0,0,0,0,0,0,0,0,0,0,0,0,0,0,0,0,0,0,0,0,0,0,0,0,0,0,0,1,0,0,0,0,0,0,0,0,0,0,0,0,0,0,0,0,0,0,0,0,0,0,0,0,0,0,0,0,0,0,0,0,0,0,0,0,0,0,0,0,0,0,0,0,0,0,0,0,0,0,0,0,0,0,0,0,1,0,0,0,0,0,0,0,0,0,0,0,0,0,0,0,0,0,0,0];
Waiting = [93,171,30,56,95,52,221,120,478,80,431,207,277,144,116,65,43,277,462,319,120,58,39,107,30,52,56,494,67,116,79,116,31,155,556,249,70,116,169,50,310,36,45,99,375,116,36,120,507,351,113,319,172,200,35,84,267,148,25,141,324,24,148,417,190,116,46,190,214,79,141,148,59,283,30,141,63,200,37,127,65,169,80,73,43,247,221,172,50,59,84,162,35,64,56,410,80,150,424,70,155,36,67,24,113,70];
Surgeon = [8,1,2,2,8,4,4,1,8,1,4,1,3,3,1,3,13,5,5,6,10,2,1,7,1,3,3,3,3,10,6,1,15,4,8,3,5,9,3,1,1,1,6,5,6,8,5,1,10,3,2,3,8,8,8,1,5,4,2,4,5,1,3,4,8,3,8,1,5,3,5,5,5,7,4,3,7,7,13,2,5,6,10,6,4,5,6,6,6,2,3,5,3,10,2,6,3,2,8,4,5,2,5,5,4,9];
BlockAvailability = [[[1,0],[0,1],[0,0],[1,0],[1,0],[1,0]],[[1,0],[1,0],[0,1],[0,0],[0,0],[1,1]],[[0,1],[0,0],[0,0],[1,0],[0,0],[1,1]],[[0,0],[1,0],[0,0],[0,0],[0,0],[0,0]],[[0,1],[0,0],[0,1],[0,0],[0,0],[1,0]],[[0,1],[1,0],[1,0],[0,0],[0,1],[0,0]]];
SurgeonAvailability = [[[1,1],[1,1],[1,1],[1,1],[1,1],[1,1]],[[0,0],[1,0],[0,1],[1,1],[0,1],[1,0]],[[1,0],[1,1],[1,0],[1,1],[0,1],[1,1]],[[1,1],[1,0],[0,0],[1,0],[1,0],[1,1]],[[0,1],[1,1],[1,1],[1,1],[0,1],[1,1]],[[1,1],[1,1],[1,1],[1,1],[1,1],[1,1]],[[0,1],[1,1],[0,0],[1,1],[1,1],[0,1]],[[0,0],[0,1],[0,1],[1,1],[1,1],[1,1]],[[1,0],[1,0],[1,1],[1,1],[1,1],[1,1]],[[1,0],[1,1],[0,1],[1,1],[1,1],[1,1]],[[1,1],[1,1],[1,0],[1,0],[1,1],[1,0]],[[1,1],[0,1],[1,0],[1,1],[0,1],[1,1]],[[1,1],[1,1],[1,0],[1,1],[0,1],[1,1]],[[1,0],[1,1],[1,1],[1,1],[1,1],[0,1]],[[0,0],[1,1],[1,1],[1,0],[1,1],[1,1]],[[0,0],[0,0],[0,1],[1,1],[1,0],[1,1]],[[1,1],[1,0],[1,1],[0,0],[1,0],[0,1]],[[1,1],[1,1],[0,1],[0,1],[0,1],[1,1]],[[1,1],[1,0],[1,0],[1,1],[0,1],[1,1]],[[0,1],[0,1],[1,1],[1,1],[1,0],[1,0]]];
